language ESSENCE' 1.0
$ Minion SolverNodes: 11
$ Minion SolverTotalTime: 0.024286
$ Minion SolverTimeOut: 0
$ Savile Row TotalTime: 0.933
letting carrying be [1, 1, 6, 23, 0, 45, 13, 10, 10, 0, 4, 1, 1, 0, 0, 30, 30]
letting registers be [[-1, -1, -1, -1, -1, -1, -1, -1, -1, -1, -1, -1, -1, -1, 0, 0, 0]]
letting steps be [1, 2, 1, 1, 1, 1, 1, 1, 2, 1, 1, 1, 2, 1, 4, 1, 2]
